Version identifier: 22.1.0.0 | 2022-03-09 | 1a383f8ce
CPXPARAM_Threads                                 1
CPXPARAM_MIP_Strategy_VariableSelect             3
CPXPARAM_TimeLimit                               599.99996686300005
1 of 1 MIP starts provided solutions.
MIP start 'm1' defined initial solution with objective 3.0000.
Tried aggregator 2 times.
MIP Presolve eliminated 40 rows and 1 columns.
MIP Presolve added 36 rows and 9 columns.
MIP Presolve modified 33 coefficients.
Aggregator did 9 substitutions.
Reduced MIP has 1813 rows, 7800 columns, and 137529 nonzeros.
Reduced MIP has 7800 binaries, 0 generals, 0 SOSs, and 0 indicators.
Presolve time = 0.17 sec. (226.58 ticks)
Probing time = 0.03 sec. (26.83 ticks)
Tried aggregator 1 time.
Detecting symmetries...
MIP Presolve modified 9 coefficients.
Reduced MIP has 1813 rows, 7800 columns, and 137835 nonzeros.
Reduced MIP has 7800 binaries, 0 generals, 0 SOSs, and 0 indicators.
Presolve time = 0.13 sec. (177.10 ticks)
Probing time = 0.03 sec. (26.85 ticks)
Clique table members: 603.
MIP emphasis: balance optimality and feasibility.
MIP search method: dynamic search.
Parallel mode: none, using 1 thread.
Root relaxation solution time = 1.65 sec. (2054.03 ticks)

        Nodes                                         Cuts/
   Node  Left     Objective  IInf  Best Integer    Best Bound    ItCnt     Gap

*     0+    0                            3.0000    45150.0000              --- 
      0     0      300.0000  1061        3.0000      300.0000     5038     --- 
*     0+    0                          300.0000      300.0000             0.00%
      0     0        cutoff            300.0000      300.0000     5038    0.00%
Elapsed time = 8.85 sec. (10132.25 ticks, tree = 0.01 MB, solutions = 2)

Root node processing (before b&c):
  Real time             =    8.86 sec. (10132.55 ticks)
Sequential b&c:
  Real time             =    0.00 sec. (0.00 ticks)
                          ------------
Total (root+branch&cut) =    8.86 sec. (10132.55 ticks)
Primal:	300
Dual:	300
Status:	Optimal
Time:	8.89
Sequence:
	20
	24
	11
	16
	21
	13
	11
	13
	15
	12
	10
	19
	11
	13
	5
	9
	16
	10
	13
	17
	16
	6
	24
	11
	16
	21
	13
	11
	13
	21
	16
	11
	13
	10
	16
	15
	13
	10
	22
	21
	19
	10
	22
	21
	13
	21
	22
	14
	13
	21
	2
	20
	16
	9
	14
	24
	20
	8
	7
	12
	20
	9
	14
	13
	14
	9
	14
	13
	11
	16
	21
	13
	9
	13
	14
	19
	11
	24
	2
	14
	12
	6
	22
	7
	16
	5
	9
	23
	7
	12
	17
	13
	20
	24
	8
	14
	24
	10
	2
	16
	21
	23
	11
	24
	14
	19
	11
	13
	14
	24
	17
	13
	10
	19
	11
	12
	6
	13
	15
	0
	21
	13
	1
	19
	10
	3
	20
	13
	12
	17
	13
	2
	6
	16
	14
	2
	10
	19
	6
	8
	20
	13
	21
	22
	14
	13
	23
	15
	23
	21
	24
	1
	16
	24
	14
	2
	11
	16
	18
	16
	10
	9
	14
	24
	21
	9
	21
	23
	7
	8
	6
	16
	20
	9
	16
	6
	16
	11
	13
	14
	24
	17
	24
	10
	19
	11
	16
	7
	24
	15
	24
	12
	1
	13
	17
	23
	21
	13
	2
	14
	23
	21
	2
	10
	16
	9
	14
	13
	10
	3
	14
	24
	13
	11
	19
	16
	6
	22
	6
	16
	14
	2
	10
	19
	11
	16
	6
	13
	15
	23
	14
	9
	4
	16
	10
	9
	21
	16
	6
	22
	21
	16
	6
	2
	24
	14
	19
	11
	23
	6
	8
	5
	13
	11
	23
	21
	16
	11
	13
	10
	16
	15
	13
	10
	23
	15
	16
	10
	13
	11
	19
	12
	20
	2
	6
	16
	21
	22
	21
	13
	10
	8
	24
	16
	6
	9
	14
	24
	15
	24
	7
	16
	17
	24
	10
	13
	17
	19
	23
	10
